c FILE /home/rafael/Documents/HappySet/MIHS/inputs/happygen/output/graph_d_regular_k2_p0.5_v100_20241127_084005.txt
c SOURCE This is a d-regular graph formed for the happy graph colouring problem.
c DESCRIPTION It was generated using the problem generator of Rhyd Lewis
c
c GRAPH STATS
c Seed                             = 107646713
c Number of Nodes                  = 100
c Number of colours k              = 2
c Number of pre-assignments        = 50
c Degree of all vertices           = 6
c Density                          = 0.0606061
c 
c The degrees of nodes 1 to 100, respectively, are as follows 
c [6, 6, 6, 6, 6, 6, 6, 6, 6, 6, 6, 6, 6, 6, 6, 6, 6, 6, 6, 6, 6, 6, 6, 6, 6, 6, 
c  6, 6, 6, 6, 6, 6, 6, 6, 6, 6, 6, 6, 6, 6, 6, 6, 6, 6, 6, 6, 6, 6, 6, 6, 6, 
c  6, 6, 6, 6, 6, 6, 6, 6, 6, 6, 6, 6, 6, 6, 6, 6, 6, 6, 6, 6, 6, 6, 6, 6, 6, 
c  6, 6, 6, 6, 6, 6, 6, 6, 6, 6, 6, 6, 6, 6, 6, 6, 6, 6, 6, 6, 6, 6, 6, 6] 
c  
p edge 100 300 2
e 1 22
e 1 39
e 1 58
e 1 64
e 1 96
e 1 100
e 2 36
e 2 42
e 2 60
e 2 72
e 2 97
e 2 98
e 3 46
e 3 65
e 3 71
e 3 75
e 3 82
e 3 91
e 4 26
e 4 30
e 4 34
e 4 36
e 4 53
e 4 88
e 5 10
e 5 37
e 5 44
e 5 52
e 5 59
e 5 61
e 6 30
e 6 43
e 6 49
e 6 65
e 6 98
e 6 100
e 7 18
e 7 27
e 7 38
e 7 62
e 7 76
e 7 91
e 8 39
e 8 60
e 8 61
e 8 77
e 8 80
e 8 85
e 9 18
e 9 33
e 9 43
e 9 50
e 9 53
e 9 88
e 10 18
e 10 26
e 10 28
e 10 86
e 10 88
e 11 44
e 11 48
e 11 57
e 11 60
e 11 68
e 11 69
e 12 26
e 12 31
e 12 38
e 12 40
e 12 67
e 12 82
e 13 33
e 13 39
e 13 45
e 13 69
e 13 85
e 13 95
e 14 26
e 14 29
e 14 41
e 14 53
e 14 75
e 14 90
e 15 46
e 15 59
e 15 62
e 15 73
e 15 89
e 15 99
e 16 34
e 16 42
e 16 46
e 16 48
e 16 82
e 16 92
e 17 21
e 17 29
e 17 45
e 17 73
e 17 78
e 17 99
e 18 24
e 18 27
e 18 82
e 19 25
e 19 41
e 19 43
e 19 47
e 19 63
e 19 94
e 20 38
e 20 45
e 20 53
e 20 95
e 20 96
e 20 97
e 21 33
e 21 39
e 21 79
e 21 88
e 21 96
e 22 27
e 22 34
e 22 55
e 22 68
e 22 94
e 23 45
e 23 54
e 23 59
e 23 73
e 23 94
e 23 96
e 24 27
e 24 51
e 24 55
e 24 86
e 24 92
e 25 87
e 25 91
e 25 93
e 25 95
e 25 99
e 26 54
e 26 62
e 27 31
e 27 69
e 28 35
e 28 52
e 28 66
e 28 70
e 28 76
e 29 46
e 29 56
e 29 69
e 29 74
e 30 32
e 30 54
e 30 70
e 30 98
e 31 41
e 31 62
e 31 63
e 31 80
e 32 61
e 32 72
e 32 79
e 32 80
e 32 84
e 33 56
e 33 94
e 33 95
e 34 38
e 34 60
e 34 73
e 35 41
e 35 74
e 35 77
e 35 83
e 35 95
e 36 54
e 36 61
e 36 76
e 36 99
e 37 61
e 37 64
e 37 65
e 37 82
e 37 84
e 38 83
e 38 100
e 39 49
e 39 62
e 40 42
e 40 45
e 40 50
e 40 71
e 40 78
e 41 93
e 41 94
e 42 68
e 42 72
e 42 100
e 43 67
e 43 76
e 43 86
e 44 48
e 44 58
e 44 74
e 44 87
e 45 65
e 46 70
e 46 80
e 47 69
e 47 72
e 47 77
e 47 85
e 47 92
e 48 74
e 48 76
e 48 99
e 49 52
e 49 66
e 49 79
e 49 86
e 50 57
e 50 66
e 50 87
e 50 96
e 51 65
e 51 71
e 51 91
e 51 97
e 51 98
e 52 66
e 52 69
e 52 89
e 53 87
e 53 88
e 54 73
e 54 80
e 55 59
e 55 81
e 55 84
e 55 91
e 56 60
e 56 64
e 56 81
e 56 98
e 57 58
e 57 67
e 57 77
e 57 90
e 58 66
e 58 70
e 58 89
e 59 61
e 59 66
e 60 97
e 62 78
e 63 67
e 63 82
e 63 83
e 63 90
e 64 68
e 64 72
e 64 99
e 65 71
e 67 79
e 67 85
e 68 77
e 68 84
e 70 80
e 70 86
e 71 75
e 71 100
e 72 97
e 73 85
e 74 83
e 74 92
e 75 79
e 75 84
e 75 91
e 76 100
e 77 93
e 78 79
e 78 92
e 78 94
e 81 85
e 81 88
e 81 93
e 81 98
e 83 90
e 83 93
e 84 86
e 87 90
e 87 92
e 89 90
e 89 95
e 89 97
e 93 96
n 1 1
n 2 2
n 6 1
n 7 1
n 8 2
n 12 1
n 13 1
n 14 1
n 15 1
n 16 1
n 17 1
n 18 1
n 20 1
n 22 1
n 24 1
n 25 1
n 26 1
n 27 1
n 32 2
n 38 1
n 40 1
n 41 1
n 44 1
n 48 1
n 49 1
n 50 1
n 51 1
n 54 1
n 55 1
n 58 1
n 59 1
n 62 1
n 66 1
n 67 1
n 68 1
n 70 1
n 71 1
n 72 2
n 73 1
n 75 1
n 76 1
n 83 1
n 86 1
n 87 1
n 88 2
n 90 1
n 92 1
n 94 1
n 95 1
n 99 1
